
  52    4
  10   10   10   10

   0   0   0   0   0  10 2 3 4 5 6 7 8 9 10 11 
   8   1   1   1   1   9 35 31 29 26 23 22 20 14 12 
   3   1   5   2   4   9 37 33 31 29 24 21 19 17 16 
   4   5   3   4   2   7 29 28 25 24 23 18 13 
   8   3   5   3   1   8 33 31 28 25 24 22 19 18 
   8   3   1   3   2   7 35 31 30 24 20 19 15 
  10   1   2   4   1   7 37 24 23 22 20 19 14 
   3   1   3   2   3   7 37 35 26 24 22 19 14 
   8   3   4   1   1   5 33 28 26 18 12 
   9   2   4   4   1   4 35 24 22 14 
   4   3   1   2   1   5 28 27 26 22 19 
   7   2   3   1   4   5 37 34 30 25 24 
   8   4   1   2   3   4 37 35 20 19 
   9   1   2   2   3   6 38 34 30 28 27 25 
   8   5   4   2   3   7 39 38 37 34 33 28 25 
   6   5   4   1   2   4 35 28 27 22 
   4   2   1   4   3   8 51 50 41 40 38 36 32 30 
   9   3   4   6   3   6 51 42 37 35 34 30 
  10   2   2   1   3   6 51 40 38 36 34 32 
   7   5   3   2   3   5 42 40 34 33 27 
   8   3   2   1   1   5 51 41 36 35 30 
   1   3   2   3   2   7 51 50 42 41 40 36 32 
   8   6   3   4   1   6 50 42 41 40 36 30 
   2   3   1   4   2   4 40 39 38 27 
   2   3   3   1   3   5 51 42 41 40 32 
   6   3   2   1   1   4 44 42 41 30 
   2   4   2   1   4   5 49 48 46 41 36 
   9   1   3   3   2   7 51 50 47 46 45 44 41 
   1   1   1   1   2   6 49 48 46 44 43 42 
   4   2   1   1   3   4 49 48 45 39 
   1   3   1   4   3   4 51 44 41 39 
   1   2   3   2   3   6 49 48 47 46 44 43 
   5   3   3   3   2   5 47 46 45 44 43 
   8   1   2   1   1   4 50 45 44 41 
   2   3   3   2   1   3 50 43 40 
   5   2   3   4   3   4 47 45 44 43 
   1   3   1   3   1   4 48 45 44 43 
   2   2   3   3   4   3 44 43 42 
   2   3   3   4   5   3 47 46 43 
   7   1   1   4   5   2 45 44 
   8   3   1   2   4   1 43 
   2   1   3   6   2   1 45 
  10   2   2   2   3   1 52
   1   1   7   3   2   1 52
   4   1   3   1   3   1 52
   1   2   3   2   4   1 52
   4   2   1   3   3   1 52
   8   1   4   4   4   1 52
   5   2   1   2   2   1 52
  10   3   1   2   2   1 52
   6   3   3   1   3   1 52
   0   0   0   0   0   0 
